-1 -793 0
-789 1 0
-88 -793 0
-793 0
1 0
-89 0
705 0
177 0
-617 0
-265 0
45 0
-353 0
-133 0
-397 0
-529 0
23 0
67 0
749 0
-221 0
-111 0
-12 0
-243 0
-100 0
-485 0
-375 0
-507 0
-155 0
-287 0
-419 0
-551 0
-661 0
0
